NAME : P = NP
TYPE : TSP
DIMENSION : 67
EDGE_WEIGHT_TYPE : EUC_2D
NODE_COORD_SECTION
0 31 23
1 97 3
2 564 90
3 553 59
4 442 107
5 340 154
6 190 91
7 85 25
8 202 344
9 734 743
10 534 739
11 57 75
12 520 299
13 872 184
14 125 102
15 499 496
16 649 81
17 383 441
18 404 115
19 409 333
20 670 104
21 3 149
22 75 159
23 483 264
24 347 298
25 36 202
26 161 136
27 192 404
28 356 69
29 155 61
30 164 156
31 382 605
32 514 361
33 350 162
34 272 58
35 719 394
36 119 95
37 504 187
38 343 646
39 150 167
40 78 517
41 717 115
42 331 303
43 107 283
44 432 739
45 321 141
46 332 632
47 48 106
48 610 9
49 207 474
50 538 194
51 392 596
52 275 319
53 99 24
54 248 9
55 300 74
56 358 118
57 11 5
58 34 241
59 32 344
60 149 60
61 25 210
62 43 362
63 212 18
64 41 11
65 232 896
66 4 350